c Random generated cnf formula, satisfiable: false
p cnf 10 50
9 10 3 0
6 -1 -9 0
-3 -9 -2 0
-7 6 9 0
-5 -1 -9 0
6 -8 4 0
-5 -2 10 0
5 1 -3 0
-2 -1 -3 0
1 -4 -8 0
2 -8 -10 0
-6 1 10 0
9 7 6 0
-2 8 10 0
-10 -1 8 0
9 3 6 0
-2 -7 -9 0
-4 7 6 0
-2 6 -7 0
-8 -2 3 0
-8 -6 9 0
5 -1 -3 0
4 -6 9 0
2 -6 -4 0
-6 -3 -9 0
-2 7 -5 0
-1 -7 9 0
-7 2 10 0
1 8 9 0
2 1 4 0
4 3 -6 0
-6 -8 -7 0
8 3 1 0
-9 10 5 0
-3 1 -6 0
-2 -8 -9 0
5 6 -2 0
10 3 -9 0
-4 5 9 0
-1 -4 -2 0
7 2 -3 0
-3 -5 9 0
-2 1 -8 0
-8 1 7 0
7 -3 9 0
10 4 -5 0
3 -7 2 0
-1 10 -5 0
1 -3 -9 0
1 2 4 0
